language ESSENCE' 1.0

letting jobs = 102
letting horizon = 825
letting resourcesRenew = 2
letting resourcesNonrenew = 2
letting resourceLimits = [36, 34, 410, 359]
letting successors = [[2, 3, 4, 5, 6, 7, 8, 10, 11, 12, 13, 14, 16, 17, 18, 20, 29], [59, 27, 26, 24, 23, 22, 21, 19, 15], [24, 22, 21, 19, 9], [59, 52, 46, 45, 41, 40, 34, 31, 24, 22, 15], [59, 56, 44, 41, 35, 32, 25, 23, 21], [40, 39, 38, 32, 23, 19], [62, 53, 52, 51, 50, 49, 48, 44, 42, 41, 40, 38, 36, 35, 34, 32], [49, 47, 46, 45, 44, 40, 38, 28, 22], [59, 56, 47, 44, 41, 39, 38, 34, 23], [62, 55, 52, 50, 49, 48, 47, 46, 45, 42, 40, 39, 38, 37, 34, 30], [59, 43, 41, 39, 30, 19], [67, 65, 56, 49, 44, 43, 41, 40, 34, 26], [61, 59, 56, 42, 39, 38, 32, 23], [54, 50, 49, 48, 46, 45, 44, 21], [82, 65, 62, 61, 50, 49, 48, 44, 39, 36, 32, 30], [82, 65, 62, 59, 55, 53, 49, 47, 30, 28], [50, 48, 47, 45, 34, 21], [73, 65, 60, 58, 56, 55, 54, 52, 51, 50, 46, 42, 39, 33], [69, 62, 56, 55, 53, 46, 44, 28], [75, 72, 69, 67, 65, 61, 60, 58, 57, 56, 53, 52, 49, 48, 45, 44, 42], [63, 62, 61, 55, 52, 40, 39, 38], [73, 67, 65, 62, 57, 56, 48, 43, 42, 39], [75, 65, 62, 60, 51, 50, 49, 48, 46, 45, 36], [75, 73, 72, 69, 68, 63, 57, 54, 53, 51, 48, 38], [82, 73, 62, 54, 52, 51, 48, 43, 39], [81, 75, 72, 69, 62, 60, 58, 53, 52, 51, 50, 46, 42], [82, 75, 73, 72, 69, 68, 66, 65, 62, 61, 57, 52, 43], [81, 75, 68, 67, 60, 52, 50, 48, 34], [69, 68, 67, 65, 64, 60, 44, 34], [100, 81, 75, 74, 73, 72, 69, 68, 67, 63, 60, 57, 54, 51], [82, 75, 72, 71, 69, 68, 64, 61, 58, 57, 44], [101, 99, 75, 74, 71, 69, 68, 66, 64, 63, 60, 47], [74, 72, 71, 69, 66, 64, 63, 62, 61, 57, 49], [74, 73, 72, 71, 70, 66, 63, 61, 58, 57, 54], [77, 74, 67, 65, 64, 46, 45], [98, 74, 72, 70, 69, 68, 66, 63, 58, 55], [81, 80, 79, 78, 77, 74, 73, 70, 68, 67, 65, 64, 57], [100, 82, 81, 77, 76, 74, 70, 67, 65, 64, 60, 58], [101, 80, 75, 74, 72, 69, 68, 64, 53], [100, 74, 73, 72, 64, 60, 58, 57], [101, 97, 93, 92, 80, 78, 71, 70, 69, 66, 64, 60], [101, 99, 97, 79, 77, 70, 68, 66, 64, 63], [71, 64, 63, 60, 55], [99, 98, 97, 94, 92, 90, 81, 80, 79, 78, 77, 73, 70, 66], [101, 99, 98, 97, 94, 90, 88, 86, 79, 78, 70, 68, 66], [100, 93, 92, 86, 80, 78, 71, 70, 57], [100, 98, 95, 94, 93, 92, 91, 88, 81, 80, 78, 76, 72, 70], [101, 97, 92, 89, 87, 80, 77, 71, 70, 66], [99, 98, 97, 95, 94, 92, 91, 90, 88, 87, 80, 78, 77, 70], [101, 99, 96, 93, 92, 89, 87, 77, 76, 64], [97, 93, 89, 79, 77, 71, 70, 64], [101, 100, 99, 98, 94, 93, 89, 85, 80, 79, 74, 71], [99, 94, 93, 92, 90, 89, 88, 77, 70, 66], [98, 96, 95, 94, 93, 92, 91, 90, 88, 87, 85, 79, 77, 76], [101, 100, 99, 97, 95, 93, 91, 90, 85, 81, 79, 77, 76], [100, 94, 93, 92, 87, 82, 78, 77, 76, 70], [101, 99, 98, 97, 95, 94, 91, 87, 85, 83, 76], [99, 97, 96, 94, 93, 92, 88, 83, 80, 78], [99, 97, 96, 93, 92, 90, 85, 83, 78, 77], [98, 95, 94, 91, 90, 89, 86, 85, 79], [97, 88, 85, 83, 78, 77, 76], [100, 99, 95, 93, 89, 70], [93, 92, 91, 90, 88, 87, 85, 78], [98, 95, 94, 91, 90, 88, 85, 83], [99, 98, 94, 92, 91, 88, 86, 84], [100, 96, 95, 91, 83, 76], [96, 91, 89, 87, 85, 84], [93, 92, 87, 85, 84], [94, 87, 86, 79], [96, 85, 84, 83], [90, 88, 76], [97, 90, 77], [93, 88, 86], [92, 87], [88, 87], [84], [86], [89], [83], [84], [87], [83], [102], [102], [102], [102], [102], [102], [102], [102], [102], [102], [102], [102], [102], [102], [102], [102], [102], [102], [102], []]
letting durations = [[0], [1, 2, 3], [1, 2, 10], [2, 2, 4], [2, 10, 10], [2, 6, 7], [3, 5, 8], [5, 8, 10], [6, 7, 8], [1, 6, 7], [4, 7, 9], [1, 3, 10], [5, 6, 8], [3, 5, 9], [1, 2, 4], [4, 8, 10], [1, 4, 7], [3, 6, 7], [3, 3, 10], [1, 8, 8], [1, 3, 6], [1, 5, 10], [1, 3, 5], [5, 6, 10], [3, 6, 10], [5, 8, 9], [6, 8, 9], [3, 6, 8], [2, 5, 6], [3, 8, 8], [6, 8, 9], [7, 9, 10], [2, 3, 10], [3, 6, 10], [6, 7, 10], [1, 4, 5], [6, 9, 10], [5, 7, 8], [7, 9, 10], [1, 9, 10], [1, 8, 10], [4, 5, 6], [3, 6, 10], [1, 5, 7], [2, 5, 5], [1, 2, 9], [2, 3, 9], [3, 5, 6], [4, 5, 9], [2, 4, 6], [6, 8, 9], [1, 5, 7], [3, 8, 9], [5, 9, 10], [2, 3, 10], [8, 9, 10], [5, 8, 8], [5, 8, 9], [5, 6, 7], [6, 9, 10], [3, 4, 9], [5, 8, 9], [4, 6, 7], [2, 4, 8], [2, 3, 5], [1, 4, 7], [4, 8, 10], [4, 5, 10], [2, 6, 8], [3, 4, 8], [1, 5, 9], [4, 9, 10], [8, 8, 9], [2, 6, 7], [7, 8, 8], [1, 3, 5], [6, 6, 9], [1, 3, 10], [3, 8, 9], [1, 6, 7], [4, 9, 10], [1, 1, 3], [4, 5, 7], [4, 9, 10], [3, 4, 8], [7, 9, 10], [3, 4, 9], [2, 3, 4], [1, 3, 7], [1, 2, 7], [1, 7, 8], [9, 9, 10], [8, 8, 9], [5, 8, 10], [1, 4, 7], [4, 7, 9], [3, 5, 7], [5, 9, 10], [1, 5, 9], [3, 9, 10], [4, 7, 9], [0]]
letting resourceUsage = [[[0, 0, 0, 0]], [[4, 5, 0, 6], [3, 4, 0, 6], [3, 3, 6, 0]], [[3, 4, 0, 9], [2, 3, 0, 7], [1, 3, 0, 5]], [[5, 2, 0, 7], [5, 2, 9, 0], [5, 2, 8, 0]], [[3, 2, 3, 0], [2, 1, 0, 3], [1, 1, 2, 0]], [[4, 4, 0, 4], [3, 3, 0, 5], [3, 3, 0, 4]], [[4, 3, 0, 6], [2, 2, 7, 0], [2, 2, 0, 5]], [[4, 5, 7, 0], [2, 5, 5, 0], [2, 5, 4, 0]], [[5, 4, 0, 5], [4, 3, 0, 4], [4, 1, 5, 0]], [[5, 4, 6, 0], [4, 4, 0, 3], [2, 4, 0, 3]], [[3, 4, 8, 0], [3, 4, 0, 8], [3, 4, 4, 0]], [[1, 2, 10, 0], [1, 2, 0, 4], [1, 1, 0, 4]], [[5, 2, 2, 0], [4, 1, 2, 0], [2, 1, 2, 0]], [[3, 4, 5, 0], [2, 4, 0, 5], [1, 2, 1, 0]], [[4, 3, 0, 6], [3, 3, 0, 5], [1, 2, 8, 0]], [[3, 3, 7, 0], [1, 3, 7, 0], [1, 3, 6, 0]], [[4, 4, 1, 0], [2, 3, 1, 0], [2, 3, 0, 6]], [[4, 4, 6, 0], [3, 3, 4, 0], [1, 3, 1, 0]], [[2, 3, 10, 0], [2, 3, 0, 10], [1, 3, 0, 10]], [[1, 5, 0, 5], [1, 4, 0, 5], [1, 2, 4, 0]], [[4, 5, 6, 0], [2, 5, 5, 0], [1, 5, 2, 0]], [[2, 3, 0, 10], [1, 2, 6, 0], [1, 2, 5, 0]], [[5, 2, 0, 8], [4, 1, 0, 6], [3, 1, 0, 4]], [[4, 4, 7, 0], [4, 3, 0, 7], [3, 3, 0, 4]], [[4, 2, 0, 6], [3, 1, 0, 5], [2, 1, 0, 4]], [[4, 4, 9, 0], [2, 4, 0, 3], [2, 4, 0, 2]], [[4, 4, 0, 8], [3, 4, 6, 0], [3, 4, 4, 0]], [[1, 1, 5, 0], [1, 1, 0, 7], [1, 1, 4, 0]], [[3, 5, 4, 0], [2, 4, 3, 0], [2, 4, 2, 0]], [[3, 3, 0, 3], [2, 1, 7, 0], [1, 1, 0, 1]], [[3, 3, 4, 0], [1, 3, 3, 0], [1, 3, 2, 0]], [[3, 4, 0, 10], [3, 3, 0, 9], [2, 2, 0, 9]], [[3, 2, 0, 3], [3, 1, 7, 0], [3, 1, 5, 0]], [[4, 2, 0, 8], [2, 1, 3, 0], [2, 1, 0, 4]], [[4, 2, 7, 0], [4, 1, 6, 0], [4, 1, 5, 0]], [[3, 4, 10, 0], [3, 4, 0, 6], [2, 4, 0, 6]], [[1, 2, 8, 0], [1, 2, 0, 1], [1, 1, 7, 0]], [[3, 3, 0, 5], [3, 2, 3, 0], [2, 1, 3, 0]], [[3, 2, 0, 8], [3, 1, 2, 0], [2, 1, 1, 0]], [[3, 2, 0, 6], [3, 1, 0, 4], [3, 1, 3, 0]], [[5, 4, 0, 6], [3, 3, 3, 0], [2, 3, 0, 3]], [[4, 5, 0, 4], [3, 3, 0, 2], [2, 3, 0, 1]], [[3, 3, 0, 6], [2, 3, 0, 5], [1, 3, 10, 0]], [[3, 3, 0, 9], [2, 2, 4, 0], [1, 2, 0, 7]], [[3, 5, 8, 0], [2, 3, 6, 0], [1, 3, 0, 1]], [[3, 4, 0, 7], [2, 4, 0, 6], [1, 4, 1, 0]], [[3, 4, 0, 6], [3, 4, 3, 0], [1, 3, 0, 5]], [[3, 2, 10, 0], [2, 2, 11, 0], [2, 2, 10, 0]], [[2, 3, 10, 0], [2, 3, 0, 5], [2, 3, 9, 0]], [[3, 3, 9, 0], [2, 3, 9, 0], [2, 1, 0, 1]], [[3, 2, 4, 0], [3, 2, 3, 0], [2, 2, 3, 0]], [[4, 4, 6, 0], [4, 4, 4, 0], [3, 4, 0, 1]], [[4, 4, 0, 6], [3, 4, 5, 0], [2, 3, 4, 0]], [[5, 2, 6, 0], [5, 1, 3, 0], [5, 1, 2, 0]], [[1, 2, 0, 6], [1, 2, 0, 3], [1, 2, 1, 0]], [[3, 5, 8, 0], [2, 3, 7, 0], [2, 3, 6, 0]], [[5, 4, 10, 0], [5, 3, 0, 6], [5, 1, 5, 0]], [[2, 3, 7, 0], [1, 2, 0, 6], [1, 1, 5, 0]], [[5, 4, 0, 4], [4, 4, 0, 4], [2, 4, 0, 3]], [[1, 2, 0, 9], [1, 2, 9, 0], [1, 2, 7, 0]], [[2, 3, 0, 6], [1, 3, 0, 4], [1, 3, 0, 3]], [[5, 5, 0, 7], [4, 5, 0, 7], [3, 5, 3, 0]], [[5, 3, 5, 0], [5, 1, 0, 10], [5, 1, 0, 9]], [[5, 5, 7, 0], [3, 2, 0, 2], [2, 1, 5, 0]], [[1, 2, 7, 0], [1, 2, 6, 0], [1, 2, 5, 0]], [[4, 2, 0, 8], [3, 2, 5, 0], [2, 2, 1, 0]], [[4, 3, 7, 0], [4, 2, 0, 4], [4, 2, 4, 0]], [[5, 3, 6, 0], [4, 1, 4, 0], [3, 1, 0, 1]], [[3, 4, 8, 0], [3, 4, 5, 0], [3, 4, 0, 3]], [[2, 1, 5, 0], [2, 1, 3, 0], [2, 1, 0, 3]], [[5, 3, 0, 4], [5, 2, 3, 0], [5, 2, 2, 0]], [[3, 3, 0, 4], [2, 3, 6, 0], [1, 3, 0, 1]], [[5, 5, 0, 6], [5, 3, 2, 0], [5, 3, 1, 0]], [[5, 3, 9, 0], [4, 2, 7, 0], [4, 2, 5, 0]], [[3, 5, 0, 7], [3, 4, 0, 6], [2, 3, 5, 0]], [[2, 4, 0, 9], [2, 4, 0, 8], [2, 4, 0, 7]], [[5, 4, 0, 4], [3, 2, 2, 0], [1, 2, 2, 0]], [[4, 4, 8, 0], [4, 3, 7, 0], [4, 3, 5, 0]], [[3, 3, 0, 1], [3, 3, 3, 0], [2, 2, 0, 1]], [[2, 5, 4, 0], [2, 3, 3, 0], [1, 2, 3, 0]], [[2, 3, 0, 6], [2, 3, 4, 0], [2, 3, 3, 0]], [[4, 5, 8, 0], [3, 5, 0, 7], [1, 5, 7, 0]], [[3, 5, 8, 0], [3, 4, 8, 0], [3, 3, 0, 3]], [[2, 1, 0, 9], [2, 1, 2, 0], [2, 1, 1, 0]], [[4, 4, 10, 0], [2, 4, 0, 6], [2, 3, 10, 0]], [[4, 4, 7, 0], [3, 3, 3, 0], [3, 2, 3, 0]], [[5, 5, 5, 0], [3, 3, 0, 9], [3, 2, 0, 9]], [[2, 3, 0, 4], [1, 2, 8, 0], [1, 2, 0, 2]], [[4, 4, 2, 0], [4, 4, 0, 2], [4, 4, 1, 0]], [[4, 2, 6, 0], [2, 2, 0, 5], [2, 2, 0, 4]], [[5, 3, 0, 6], [3, 3, 9, 0], [3, 2, 0, 1]], [[2, 3, 0, 1], [2, 3, 8, 0], [2, 3, 7, 0]], [[5, 4, 5, 0], [3, 2, 0, 8], [3, 2, 0, 6]], [[4, 4, 2, 0], [3, 3, 2, 0], [1, 2, 0, 7]], [[3, 2, 6, 0], [3, 2, 0, 8], [2, 2, 3, 0]], [[3, 2, 0, 8], [3, 2, 4, 0], [3, 2, 0, 3]], [[4, 3, 0, 6], [3, 2, 0, 6], [3, 2, 0, 5]], [[1, 4, 6, 0], [1, 3, 0, 6], [1, 3, 0, 5]], [[4, 3, 8, 0], [2, 3, 0, 5], [2, 2, 0, 3]], [[4, 3, 1, 0], [4, 3, 0, 9], [3, 2, 0, 9]], [[4, 3, 6, 0], [4, 2, 5, 0], [3, 1, 0, 3]], [[0, 0, 0, 0]]]
